NAME : mar30_100_2
COMMENT : Data set with 30 points
COMMENT : CIn-UFPE
COMMENT : Contributed by Marcelo Lacerda
TYPE : TSP
DIMENSION : 30
EDGE_WEIGHT_TYPE : EUC_2D
NODE_COORD_SECTION
1 10 84
2 69 63
3 64 97
4 18 52
5 78 44
6 73 52
7 34 8
8 20 69
9 81 56
10 55 81
11 96 77
12 32 38
13 39 81
14 22 75
15 44 65
16 80 2
17 93 73
18 27 68
19 86 44
20 22 36
21 95 7
22 13 91
23 85 61
24 97 77
25 37 64
26 12 36
27 13 51
28 87 82
29 30 98
30 1 37
EOF
